
n_res = 8;
rcap = [30, 31, 31, 27, 1361, 1355, 1223, 1277];
rtype = [1, 1, 1, 1, 2, 2, 2, 2];
n_tasks = 100;
modes =  [{1, 2, 3, 4, 5, 6}, {7, 8, 9, 10, 11, 12}, {13, 14, 15, 16, 17, 18}, {19, 20, 21, 22, 23, 24}, {25, 26, 27, 28, 29, 30}, {31, 32, 33, 34, 35, 36}, {37, 38, 39, 40, 41, 42}, {43, 44, 45, 46, 47, 48}, {49, 50, 51, 52, 53, 54}, {55, 56, 57, 58, 59, 60}, {61, 62, 63, 64, 65, 66}, {67, 68, 69, 70, 71, 72}, {73, 74, 75, 76, 77, 78}, {79, 80, 81, 82, 83, 84}, {85, 86, 87, 88, 89, 90}, {91, 92, 93, 94, 95, 96}, {97, 98, 99, 100, 101, 102}, {103, 104, 105, 106, 107, 108}, {109, 110, 111, 112, 113, 114}, {115, 116, 117, 118, 119, 120}, {121, 122, 123, 124, 125, 126}, {127, 128, 129, 130, 131, 132}, {133, 134, 135, 136, 137, 138}, {139, 140, 141, 142, 143, 144}, {145, 146, 147, 148, 149, 150}, {151, 152, 153, 154, 155, 156}, {157, 158, 159, 160, 161, 162}, {163, 164, 165, 166, 167, 168}, {169, 170, 171, 172, 173, 174}, {175, 176, 177, 178, 179, 180}, {181, 182, 183, 184, 185, 186}, {187, 188, 189, 190, 191, 192}, {193, 194, 195, 196, 197, 198}, {199, 200, 201, 202, 203, 204}, {205, 206, 207, 208, 209, 210}, {211, 212, 213, 214, 215, 216}, {217, 218, 219, 220, 221, 222}, {223, 224, 225, 226, 227, 228}, {229, 230, 231, 232, 233, 234}, {235, 236, 237, 238, 239, 240}, {241, 242, 243, 244, 245, 246}, {247, 248, 249, 250, 251, 252}, {253, 254, 255, 256, 257, 258}, {259, 260, 261, 262, 263, 264}, {265, 266, 267, 268, 269, 270}, {271, 272, 273, 274, 275, 276}, {277, 278, 279, 280, 281, 282}, {283, 284, 285, 286, 287, 288}, {289, 290, 291, 292, 293, 294}, {295, 296, 297, 298, 299, 300}, {301, 302, 303, 304, 305, 306}, {307, 308, 309, 310, 311, 312}, {313, 314, 315, 316, 317, 318}, {319, 320, 321, 322, 323, 324}, {325, 326, 327, 328, 329, 330}, {331, 332, 333, 334, 335, 336}, {337, 338, 339, 340, 341, 342}, {343, 344, 345, 346, 347, 348}, {349, 350, 351, 352, 353, 354}, {355, 356, 357, 358, 359, 360}, {361, 362, 363, 364, 365, 366}, {367, 368, 369, 370, 371, 372}, {373, 374, 375, 376, 377, 378}, {379, 380, 381, 382, 383, 384}, {385, 386, 387, 388, 389, 390}, {391, 392, 393, 394, 395, 396}, {397, 398, 399, 400, 401, 402}, {403, 404, 405, 406, 407, 408}, {409, 410, 411, 412, 413, 414}, {415, 416, 417, 418, 419, 420}, {421, 422, 423, 424, 425, 426}, {427, 428, 429, 430, 431, 432}, {433, 434, 435, 436, 437, 438}, {439, 440, 441, 442, 443, 444}, {445, 446, 447, 448, 449, 450}, {451, 452, 453, 454, 455, 456}, {457, 458, 459, 460, 461, 462}, {463, 464, 465, 466, 467, 468}, {469, 470, 471, 472, 473, 474}, {475, 476, 477, 478, 479, 480}, {481, 482, 483, 484, 485, 486}, {487, 488, 489, 490, 491, 492}, {493, 494, 495, 496, 497, 498}, {499, 500, 501, 502, 503, 504}, {505, 506, 507, 508, 509, 510}, {511, 512, 513, 514, 515, 516}, {517, 518, 519, 520, 521, 522}, {523, 524, 525, 526, 527, 528}, {529, 530, 531, 532, 533, 534}, {535, 536, 537, 538, 539, 540}, {541, 542, 543, 544, 545, 546}, {547, 548, 549, 550, 551, 552}, {553, 554, 555, 556, 557, 558}, {559, 560, 561, 562, 563, 564}, {565, 566, 567, 568, 569, 570}, {571, 572, 573, 574, 575, 576}, {577, 578, 579, 580, 581, 582}, {583, 584, 585, 586, 587, 588}, {589, 590, 591, 592, 593, 594}, {595, 596, 597, 598, 599, 600}];
succ =  [{49, 43, 37, 29, 19, 18, 16, 15, 14, 12}, {70, 58, 49, 46, 43, 42, 41, 40, 37, 34, 30, 28, 18, 16}, {62, 56, 50, 49, 46, 42, 37, 29, 28, 27, 26, 23, 22, 14}, {58, 49, 46, 43, 42, 37, 35, 32, 28, 22, 21, 18}, {60, 51, 49, 46, 42, 36, 35, 32, 30, 24, 21, 18}, {62, 56, 50, 46, 36, 29, 22, 17, 14}, {62, 58, 56, 49, 46, 44, 43, 42, 36, 35, 27, 23, 22}, {58, 56, 46, 44, 41, 36, 35, 22, 18}, {62, 58, 56, 49, 46, 44, 42, 39, 37, 36, 27, 22}, {62, 58, 46, 41, 39, 27, 22, 16}, {62, 56, 50, 46, 41, 36, 35, 29, 27, 22}, {58, 56, 50, 46, 44, 42, 38, 35, 32, 22}, {70, 60, 58, 56, 52, 51, 50, 47, 46, 45, 43, 40, 39, 30}, {70, 69, 60, 58, 54, 52, 51, 45, 44, 39, 38, 30}, {70, 69, 66, 60, 58, 56, 51, 48, 47, 46, 45, 40, 39, 35}, {69, 66, 60, 57, 56, 54, 53, 52, 45, 44, 38, 36, 35}, {70, 69, 66, 58, 57, 53, 51, 49, 45, 41, 38, 37}, {62, 57, 50, 48, 45, 39, 27}, {70, 69, 62, 56, 54, 53, 52, 50, 44, 38, 36}, {69, 66, 64, 59, 56, 54, 53, 52, 48, 45, 44, 38}, {70, 64, 56, 54, 53, 52, 48, 45, 44, 40, 38}, {70, 60, 54, 51, 45, 40, 30}, {69, 66, 64, 54, 52, 48, 40, 39, 38}, {69, 67, 66, 65, 64, 63, 59, 58, 57, 56, 54, 52, 47, 45}, {64, 51, 50, 49, 47, 36}, {74, 69, 68, 64, 59, 53, 51, 48, 44, 41}, {81, 69, 68, 65, 64, 61, 59, 54, 52, 38}, {75, 74, 69, 67, 66, 55, 54, 53, 51, 36}, {73, 66, 59, 58, 54, 51, 48, 38}, {75, 74, 73, 71, 67, 66, 64, 63, 57, 53, 48}, {99, 97, 81, 75, 73, 71, 69, 68, 66, 54, 53, 44}, {81, 66, 62, 61, 59, 57, 52, 47}, {99, 73, 72, 70, 68, 67, 65, 63, 61, 53, 51}, {98, 74, 73, 68, 64, 59, 55, 51, 48}, {100, 99, 98, 81, 80, 75, 74, 72, 71, 68, 65, 64, 63, 61, 55}, {98, 79, 73, 71, 68, 59, 48}, {64, 63, 59, 55, 48}, {93, 76, 67, 63, 47}, {96, 94, 80, 77, 74, 73, 72, 71, 68, 67, 59, 53}, {81, 80, 75, 71, 65, 61, 59, 55}, {99, 98, 97, 94, 80, 77, 75, 73, 71, 63, 54}, {100, 99, 97, 94, 93, 91, 89, 81, 80, 77, 76, 74, 73, 69, 67}, {100, 99, 98, 96, 95, 94, 92, 88, 86, 80, 79, 77, 76, 71, 61}, {98, 92, 80, 72, 65, 63, 55}, {99, 96, 94, 90, 86, 79, 77, 72, 71, 68, 61}, {100, 98, 97, 96, 93, 80, 79, 78, 77, 71, 59}, {100, 98, 95, 90, 80, 75, 74, 72, 71, 55}, {99, 96, 94, 92, 86, 81, 80, 72, 65, 61}, {79, 73, 71, 67, 65, 63}, {100, 93, 90, 86, 80, 79, 71, 66}, {96, 95, 94, 91, 90, 86, 84, 81, 80, 77, 76, 71}, {99, 97, 92, 90, 87, 86, 84, 78, 77, 73}, {100, 98, 93, 91, 90, 88, 86, 85, 79, 76}, {92, 91, 90, 89, 88, 87, 86, 82, 79, 76}, {96, 94, 91, 89, 87, 83, 79, 78, 77}, {99, 93, 92, 91, 88, 86, 83, 71}, {95, 92, 90, 89, 88, 87, 86, 85, 84, 83, 82}, {98, 93, 92, 91, 88, 87, 86, 85, 84, 83, 82}, {95, 92, 91, 90, 89, 88, 86, 85, 76}, {100, 91, 89, 86, 84, 82, 80, 76}, {97, 93, 91, 89, 84, 83, 82, 78}, {96, 94, 93, 92, 90, 87, 84, 83}, {95, 91, 88, 87, 86, 82, 78}, {94, 92, 90, 87, 85, 84, 76}, {93, 90, 89, 84, 77, 76}, {94, 89, 88, 84, 77, 76}, {92, 90, 86, 85, 84, 83, 82}, {92, 88, 85, 84, 82, 76}, {87, 86, 84, 82, 78}, {90, 88, 87, 86, 77}, {89, 87, 85, 82}, {89, 87, 83}, {88, 83, 82}, {88, 82}, {86, 84}, {83}, {82}, {85}, {84}, {85}, {82}, {}, {}, {}, {}, {}, {}, {}, {}, {}, {}, {}, {}, {}, {}, {}, {}, {}, {}, {}];
n_opt = 600;
dur = [3, 4, 12, 16, 26, 28, 1, 4, 6, 9, 10, 11, 5, 6, 11, 13, 26, 28, 1, 3, 10, 26, 28, 29, 10, 12, 14, 20, 27, 30, 10, 19, 23, 26, 27, 28, 1, 17, 19, 23, 25, 27, 8, 9, 17, 20, 26, 29, 7, 10, 14, 25, 27, 29, 4, 7, 11, 15, 28, 30, 14, 20, 23, 24, 27, 30, 2, 5, 6, 11, 13, 25, 8, 11, 23, 25, 26, 30, 5, 20, 24, 25, 28, 29, 9, 14, 17, 19, 20, 28, 4, 8, 9, 17, 22, 24, 3, 6, 7, 10, 22, 26, 13, 17, 18, 19, 21, 27, 2, 3, 5, 6, 8, 21, 2, 3, 4, 8, 26, 27, 6, 9, 20, 22, 24, 25, 11, 13, 17, 21, 27, 29, 8, 10, 13, 14, 27, 30, 4, 15, 16, 27, 29, 30, 2, 7, 8, 16, 28, 29, 1, 3, 4, 15, 16, 17, 4, 10, 11, 15, 24, 25, 4, 5, 7, 13, 17, 19, 14, 19, 20, 26, 28, 30, 3, 6, 9, 13, 20, 26, 7, 10, 18, 19, 20, 27, 1, 2, 10, 23, 24, 25, 10, 11, 12, 13, 17, 29, 2, 3, 6, 11, 14, 28, 1, 6, 7, 9, 21, 27, 6, 7, 17, 18, 27, 30, 4, 7, 12, 20, 28, 30, 5, 6, 9, 11, 14, 15, 6, 9, 14, 19, 23, 27, 6, 19, 22, 23, 28, 29, 4, 13, 14, 22, 25, 28, 9, 14, 25, 26, 28, 29, 7, 11, 12, 13, 14, 22, 9, 25, 26, 27, 28, 29, 5, 7, 8, 18, 19, 20, 7, 11, 14, 20, 21, 28, 10, 11, 15, 16, 17, 19, 6, 7, 9, 10, 17, 21, 1, 6, 11, 12, 18, 20, 5, 10, 12, 13, 21, 22, 5, 6, 10, 14, 22, 23, 1, 6, 13, 17, 18, 28, 17, 21, 22, 26, 27, 28, 1, 11, 13, 14, 15, 27, 4, 10, 12, 18, 26, 28, 4, 17, 18, 19, 20, 22, 7, 8, 10, 14, 16, 19, 1, 7, 12, 13, 15, 28, 8, 9, 14, 20, 23, 27, 8, 15, 16, 18, 19, 24, 17, 18, 21, 25, 26, 27, 2, 3, 8, 10, 17, 28, 3, 6, 8, 15, 19, 27, 9, 11, 13, 14, 21, 24, 2, 10, 20, 23, 24, 27, 1, 2, 8, 16, 19, 27, 12, 15, 17, 22, 25, 26, 1, 3, 13, 15, 22, 30, 3, 9, 15, 24, 25, 29, 4, 6, 7, 8, 13, 30, 13, 14, 16, 19, 21, 24, 9, 12, 13, 20, 22, 29, 2, 10, 11, 18, 24, 27, 11, 13, 14, 20, 22, 25, 3, 4, 5, 6, 14, 24, 7, 13, 23, 24, 25, 26, 2, 3, 6, 20, 27, 30, 1, 8, 16, 25, 27, 29, 7, 9, 10, 11, 13, 24, 5, 7, 14, 22, 23, 25, 3, 8, 15, 20, 25, 30, 4, 6, 13, 14, 15, 17, 1, 2, 3, 4, 6, 22, 8, 13, 19, 20, 27, 30, 3, 4, 7, 9, 14, 26, 10, 12, 19, 20, 26, 30, 4, 8, 13, 15, 23, 24, 15, 20, 22, 23, 29, 30, 1, 2, 3, 5, 19, 24, 10, 11, 12, 20, 21, 22, 6, 7, 13, 18, 19, 28, 3, 10, 19, 20, 22, 26, 7, 9, 11, 15, 19, 20, 10, 20, 21, 23, 27, 30, 6, 7, 10, 16, 26, 28, 16, 17, 18, 20, 24, 25, 5, 7, 9, 25, 27, 30, 1, 3, 7, 18, 24, 25, 5, 6, 7, 8, 9, 30, 6, 11, 13, 14, 15, 25];
rreq = [|3, 3, 3, 3, 3, 3, 4, 4, 4, 4, 3, 3, 2, 2, 2, 2, 1, 1, 3, 3, 3, 2, 2, 1, 3, 3, 3, 3, 3, 3, 1, 1, 1, 1, 1, 1, 3, 3, 2, 2, 2, 1, 3, 3, 2, 2, 2, 1, 4, 4, 4, 3, 3, 3, 4, 4, 3, 2, 1, 1, 4, 4, 4, 4, 4, 4, 2, 2, 2, 2, 2, 2, 4, 4, 3, 2, 1, 1, 4, 3, 3, 2, 2, 1, 4, 4, 3, 3, 1, 1, 3, 2, 2, 2, 2, 2, 3, 3, 3, 3, 3, 3, 1, 1, 1, 1, 1, 1, 5, 4, 4, 3, 3, 3, 4, 3, 2, 2, 2, 1, 4, 3, 3, 3, 1, 1, 2, 2, 2, 1, 1, 1, 4, 4, 4, 4, 4, 4, 4, 4, 4, 3, 3, 2, 1, 1, 1, 1, 1, 1, 3, 2, 2, 2, 2, 2, 2, 1, 1, 1, 1, 1, 1, 1, 1, 1, 1, 1, 4, 4, 4, 4, 4, 4, 4, 3, 3, 3, 3, 3, 3, 2, 2, 1, 1, 1, 4, 4, 4, 4, 3, 3, 5, 4, 4, 3, 3, 3, 4, 3, 3, 2, 1, 1, 4, 4, 4, 3, 2, 2, 5, 4, 4, 3, 3, 2, 3, 2, 2, 1, 1, 1, 1, 1, 1, 1, 1, 1, 4, 3, 3, 3, 2, 2, 4, 3, 3, 2, 2, 1, 3, 3, 3, 2, 1, 1, 2, 2, 2, 2, 2, 2, 3, 2, 2, 1, 1, 1, 5, 4, 4, 3, 3, 2, 5, 4, 4, 3, 3, 3, 4, 4, 4, 4, 4, 4, 2, 2, 2, 1, 1, 1, 1, 1, 1, 1, 1, 1, 3, 3, 3, 3, 2, 2, 2, 2, 2, 2, 2, 2, 2, 2, 2, 2, 2, 2, 4, 4, 4, 4, 4, 4, 1, 1, 1, 1, 1, 1, 3, 3, 3, 3, 3, 3, 5, 5, 5, 5, 5, 5, 5, 4, 4, 3, 3, 3, 3, 3, 2, 2, 1, 1, 4, 3, 2, 2, 2, 1, 4, 4, 3, 3, 2, 2, 1, 1, 1, 1, 1, 1, 3, 3, 3, 3, 3, 3, 2, 2, 2, 2, 2, 2, 5, 5, 5, 5, 5, 5, 2, 2, 2, 1, 1, 1, 5, 4, 4, 4, 4, 4, 4, 3, 3, 3, 2, 2, 4, 4, 4, 4, 4, 4, 2, 2, 2, 2, 2, 2, 1, 1, 1, 1, 1, 1, 5, 4, 3, 3, 2, 1, 5, 4, 4, 4, 4, 4, 5, 4, 4, 4, 4, 4, 1, 1, 1, 1, 1, 1, 2, 1, 1, 1, 1, 1, 3, 3, 3, 2, 2, 1, 4, 3, 3, 3, 3, 3, 5, 4, 3, 3, 2, 2, 3, 2, 2, 2, 2, 2, 4, 4, 4, 4, 4, 4, 4, 4, 4, 4, 4, 4, 5, 4, 4, 4, 4, 4, 4, 4, 3, 3, 2, 1, 5, 4, 3, 3, 3, 2, 5, 3, 3, 3, 1, 1, 4, 3, 3, 3, 2, 2, 3, 3, 3, 3, 3, 3, 3, 2, 2, 1, 1, 1, 3, 2, 2, 2, 2, 2, 4, 4, 4, 4, 4, 4, 1, 1, 1, 1, 1, 1, 4, 3, 3, 2, 1, 1, 3, 3, 3, 2, 2, 1, 3, 2, 2, 2, 1, 1, 4, 4, 4, 4, 4, 4, 4, 4, 4, 4, 3, 3, 4, 3, 2, 2, 1, 1, 4, 3, 3, 3, 1, 1, 2, 1, 1, 1, 1, 1, 5, 5, 5, 5, 5, 5, 4, 3, 2, 2, 1, 1
 |4, 3, 3, 3, 3, 3, 3, 2, 2, 1, 1, 1, 3, 3, 3, 3, 3, 3, 4, 4, 4, 4, 4, 4, 1, 1, 1, 1, 1, 1, 2, 2, 2, 2, 2, 2, 3, 2, 2, 2, 2, 2, 3, 3, 3, 3, 3, 3, 4, 3, 3, 3, 2, 2, 4, 4, 4, 3, 3, 3, 4, 4, 4, 4, 4, 4, 4, 4, 4, 4, 4, 4, 4, 4, 4, 4, 4, 4, 3, 2, 2, 2, 2, 2, 1, 1, 1, 1, 1, 1, 4, 3, 3, 3, 3, 3, 3, 3, 3, 3, 3, 3, 3, 3, 3, 3, 2, 2, 3, 3, 2, 2, 2, 1, 3, 3, 3, 2, 1, 1, 4, 3, 3, 2, 2, 1, 1, 1, 1, 1, 1, 1, 4, 4, 4, 3, 2, 2, 1, 1, 1, 1, 1, 1, 4, 3, 3, 2, 2, 1, 3, 3, 3, 3, 3, 3, 4, 4, 4, 3, 3, 2, 3, 2, 2, 2, 2, 2, 4, 3, 3, 2, 2, 2, 4, 4, 4, 4, 4, 4, 3, 2, 2, 2, 2, 2, 4, 3, 3, 3, 3, 3, 5, 4, 4, 4, 4, 4, 3, 2, 2, 1, 1, 1, 5, 4, 3, 3, 3, 2, 5, 4, 3, 3, 2, 1, 3, 3, 3, 3, 3, 3, 4, 3, 3, 2, 2, 1, 3, 3, 3, 2, 2, 2, 3, 3, 3, 3, 3, 3, 2, 2, 2, 2, 1, 1, 2, 1, 1, 1, 1, 1, 5, 4, 4, 3, 2, 2, 4, 3, 3, 3, 3, 3, 1, 1, 1, 1, 1, 1, 5, 4, 4, 3, 3, 2, 3, 2, 2, 1, 1, 1, 3, 3, 3, 2, 2, 2, 3, 3, 3, 2, 2, 2, 4, 4, 4, 3, 3, 3, 3, 3, 3, 3, 3, 3, 3, 3, 3, 3, 3, 3, 1, 1, 1, 1, 1, 1, 4, 3, 3, 2, 2, 2, 4, 3, 3, 2, 1, 1, 1, 1, 1, 1, 1, 1, 4, 3, 2, 2, 1, 1, 2, 1, 1, 1, 1, 1, 4, 4, 4, 4, 4, 4, 5, 4, 3, 2, 1, 1, 4, 4, 4, 3, 2, 2, 3, 3, 3, 3, 3, 3, 4, 3, 3, 3, 2, 2, 4, 4, 4, 4, 4, 4, 3, 3, 3, 3, 3, 3, 4, 3, 3, 2, 1, 1, 2, 1, 1, 1, 1, 1, 2, 2, 2, 2, 2, 2, 3, 2, 2, 2, 2, 2, 4, 3, 3, 2, 2, 1, 5, 5, 5, 5, 5, 5, 2, 2, 2, 1, 1, 1, 3, 3, 3, 2, 1, 1, 3, 3, 3, 3, 3, 3, 5, 5, 5, 5, 5, 5, 3, 2, 2, 1, 1, 1, 4, 3, 3, 3, 2, 1, 1, 1, 1, 1, 1, 1, 5, 4, 4, 4, 4, 4, 4, 3, 2, 2, 2, 1, 5, 4, 4, 3, 3, 2, 2, 2, 2, 1, 1, 1, 4, 3, 3, 3, 3, 3, 5, 5, 5, 5, 5, 5, 4, 4, 4, 4, 4, 4, 5, 4, 4, 3, 3, 3, 3, 3, 3, 3, 3, 3, 5, 4, 4, 3, 3, 3, 3, 3, 3, 2, 2, 1, 3, 3, 2, 2, 2, 1, 4, 3, 3, 2, 1, 1, 3, 2, 2, 2, 2, 2, 5, 4, 4, 3, 2, 2, 5, 5, 5, 5, 5, 5, 5, 4, 4, 3, 3, 2, 2, 1, 1, 1, 1, 1, 4, 4, 3, 3, 2, 2, 5, 5, 5, 5, 5, 5, 4, 4, 4, 3, 2, 2, 4, 4, 4, 3, 3, 3
 |4, 3, 3, 3, 3, 3, 5, 4, 4, 3, 3, 3, 5, 4, 4, 4, 4, 4, 2, 2, 2, 2, 2, 2, 2, 1, 1, 1, 1, 1, 5, 5, 5, 5, 5, 5, 3, 3, 3, 3, 2, 2, 2, 1, 1, 1, 1, 1, 4, 4, 4, 4, 4, 4, 4, 4, 4, 4, 3, 3, 4, 3, 3, 2, 2, 2, 4, 4, 3, 3, 2, 2, 2, 2, 2, 2, 2, 2, 2, 2, 2, 2, 2, 2, 3, 3, 2, 2, 2, 1, 3, 3, 2, 2, 1, 1, 4, 4, 4, 4, 4, 4, 2, 2, 2, 2, 2, 2, 1, 1, 1, 1, 1, 1, 5, 4, 3, 3, 2, 2, 4, 4, 4, 4, 4, 4, 5, 3, 3, 3, 1, 1, 2, 1, 1, 1, 1, 1, 1, 1, 1, 1, 1, 1, 3, 3, 3, 3, 2, 2, 4, 3, 3, 3, 3, 3, 4, 4, 4, 4, 4, 4, 1, 1, 1, 1, 1, 1, 4, 3, 3, 2, 2, 1, 3, 2, 2, 1, 1, 1, 4, 3, 3, 3, 3, 3, 5, 4, 4, 4, 4, 4, 4, 3, 3, 3, 2, 2, 2, 2, 2, 1, 1, 1, 5, 5, 5, 5, 5, 5, 4, 4, 4, 3, 3, 3, 4, 3, 3, 3, 3, 3, 2, 2, 2, 2, 2, 2, 2, 2, 2, 2, 2, 2, 5, 4, 4, 4, 4, 4, 3, 3, 2, 2, 2, 1, 5, 5, 5, 5, 5, 5, 1, 1, 1, 1, 1, 1, 1, 1, 1, 1, 1, 1, 3, 3, 3, 3, 3, 3, 1, 1, 1, 1, 1, 1, 5, 4, 4, 3, 2, 2, 4, 4, 4, 4, 4, 4, 2, 2, 2, 2, 2, 2, 3, 3, 2, 2, 2, 1, 3, 2, 2, 2, 2, 2, 5, 4, 4, 3, 2, 2, 3, 2, 2, 2, 1, 1, 4, 3, 3, 3, 1, 1, 1, 1, 1, 1, 1, 1, 5, 5, 5, 5, 5, 5, 3, 2, 2, 2, 2, 2, 5, 4, 4, 4, 3, 3, 5, 4, 3, 2, 2, 1, 2, 2, 2, 2, 2, 2, 4, 4, 4, 4, 4, 4, 2, 2, 2, 2, 2, 2, 4, 3, 3, 2, 2, 2, 4, 4, 3, 3, 2, 2, 2, 1, 1, 1, 1, 1, 4, 4, 4, 4, 4, 4, 5, 5, 5, 5, 5, 5, 3, 2, 2, 1, 1, 1, 5, 4, 4, 4, 4, 4, 4, 3, 2, 2, 1, 1, 3, 3, 3, 3, 3, 3, 2, 2, 2, 1, 1, 1, 5, 4, 4, 4, 3, 3, 5, 4, 3, 3, 2, 1, 2, 2, 2, 2, 2, 2, 2, 1, 1, 1, 1, 1, 2, 2, 2, 2, 2, 2, 1, 1, 1, 1, 1, 1, 4, 3, 2, 2, 1, 1, 4, 4, 4, 3, 3, 3, 4, 4, 4, 4, 4, 4, 5, 4, 3, 3, 2, 2, 4, 4, 4, 4, 3, 3, 2, 1, 1, 1, 1, 1, 3, 2, 2, 2, 1, 1, 4, 3, 2, 2, 1, 1, 4, 4, 4, 4, 3, 3, 4, 4, 3, 3, 1, 1, 4, 4, 4, 4, 4, 4, 2, 2, 2, 2, 2, 2, 2, 2, 2, 2, 2, 2, 3, 2, 2, 2, 2, 2, 4, 4, 4, 4, 4, 4, 5, 3, 3, 3, 2, 1, 2, 2, 2, 2, 2, 2, 1, 1, 1, 1, 1, 1, 4, 3, 2, 2, 1, 1, 4, 3, 3, 2, 2, 2, 4, 4, 4, 4, 4, 4, 3, 2, 2, 2, 1, 1
 |4, 4, 4, 4, 4, 4, 3, 3, 2, 2, 1, 1, 5, 5, 5, 5, 5, 5, 2, 2, 2, 2, 2, 2, 3, 3, 3, 3, 3, 3, 4, 4, 4, 4, 4, 4, 3, 3, 3, 3, 2, 2, 1, 1, 1, 1, 1, 1, 4, 3, 3, 2, 1, 1, 3, 3, 3, 3, 2, 2, 4, 3, 3, 2, 2, 1, 1, 1, 1, 1, 1, 1, 3, 3, 3, 3, 3, 3, 3, 2, 2, 2, 2, 2, 4, 4, 4, 4, 4, 4, 2, 2, 2, 2, 2, 2, 3, 2, 2, 2, 1, 1, 2, 2, 2, 2, 2, 2, 4, 3, 3, 3, 1, 1, 3, 2, 2, 2, 1, 1, 3, 2, 2, 2, 1, 1, 4, 4, 4, 4, 4, 4, 2, 2, 2, 2, 2, 2, 1, 1, 1, 1, 1, 1, 2, 1, 1, 1, 1, 1, 4, 3, 3, 3, 2, 2, 5, 3, 3, 3, 1, 1, 4, 3, 3, 3, 3, 3, 4, 3, 3, 3, 3, 3, 3, 2, 2, 1, 1, 1, 3, 2, 2, 2, 2, 2, 4, 4, 4, 4, 4, 4, 3, 3, 3, 2, 1, 1, 5, 4, 4, 4, 4, 4, 5, 3, 3, 3, 2, 1, 2, 2, 2, 2, 2, 2, 5, 4, 4, 4, 3, 3, 4, 4, 3, 3, 2, 1, 2, 2, 2, 2, 2, 2, 5, 3, 3, 3, 2, 1, 4, 4, 4, 3, 2, 2, 1, 1, 1, 1, 1, 1, 4, 3, 3, 3, 2, 1, 4, 3, 3, 2, 2, 2, 3, 2, 2, 2, 2, 2, 3, 3, 2, 2, 2, 1, 2, 2, 2, 2, 2, 2, 2, 2, 2, 2, 2, 2, 1, 1, 1, 1, 1, 1, 3, 2, 2, 2, 2, 2, 5, 4, 3, 3, 2, 2, 3, 2, 2, 2, 2, 2, 2, 2, 2, 2, 2, 2, 2, 1, 1, 1, 1, 1, 3, 3, 3, 2, 2, 2, 4, 3, 2, 2, 2, 1, 5, 4, 4, 4, 4, 4, 5, 4, 4, 4, 4, 4, 5, 4, 4, 4, 4, 4, 2, 2, 2, 2, 2, 2, 3, 3, 3, 3, 3, 3, 4, 4, 4, 3, 3, 3, 4, 4, 4, 4, 4, 4, 5, 4, 4, 4, 3, 3, 5, 3, 3, 3, 2, 1, 4, 4, 3, 3, 3, 2, 3, 2, 2, 1, 1, 1, 5, 4, 4, 3, 2, 2, 4, 4, 4, 4, 4, 4, 2, 1, 1, 1, 1, 1, 4, 4, 4, 3, 3, 3, 4, 4, 4, 3, 3, 3, 4, 3, 3, 2, 1, 1, 2, 2, 2, 1, 1, 1, 2, 2, 2, 2, 2, 2, 4, 4, 4, 4, 3, 3, 2, 2, 2, 2, 2, 2, 1, 1, 1, 1, 1, 1, 4, 3, 3, 3, 3, 3, 3, 3, 3, 3, 3, 3, 2, 2, 2, 2, 2, 2, 1, 1, 1, 1, 1, 1, 4, 3, 3, 2, 2, 2, 4, 3, 2, 2, 1, 1, 2, 2, 2, 2, 2, 2, 1, 1, 1, 1, 1, 1, 3, 3, 3, 3, 2, 2, 2, 2, 2, 2, 1, 1, 3, 3, 3, 3, 3, 3, 3, 3, 3, 3, 3, 3, 2, 2, 2, 1, 1, 1, 2, 1, 1, 1, 1, 1, 2, 1, 1, 1, 1, 1, 2, 2, 2, 2, 2, 2, 3, 3, 3, 3, 3, 3, 4, 4, 4, 4, 4, 4, 3, 2, 2, 1, 1, 1, 5, 4, 3, 3, 2, 1, 2, 2, 2, 2, 2, 2, 4, 4, 4, 4, 4, 4
 |26, 22, 17, 17, 11, 8, 20, 14, 12, 9, 6, 4, 14, 13, 11, 10, 8, 5, 18, 15, 14, 11, 7, 7, 8, 8, 7, 7, 7, 6, 24, 22, 20, 18, 18, 17, 23, 19, 15, 15, 9, 3, 24, 24, 22, 21, 20, 20, 5, 5, 3, 2, 1, 1, 26, 22, 19, 14, 12, 8, 22, 22, 22, 22, 22, 22, 20, 18, 17, 15, 14, 13, 23, 21, 16, 12, 8, 7, 28, 26, 19, 19, 12, 10, 29, 27, 26, 25, 24, 23, 2, 2, 2, 2, 1, 1, 19, 18, 16, 10, 8, 6, 28, 24, 21, 20, 17, 14, 28, 25, 20, 19, 17, 12, 11, 11, 8, 6, 4, 3, 20, 16, 16, 13, 9, 9, 10, 9, 9, 7, 6, 6, 15, 14, 11, 9, 6, 5, 26, 22, 20, 14, 11, 9, 26, 22, 21, 16, 15, 10, 2, 2, 2, 1, 1, 1, 12, 12, 12, 12, 12, 12, 27, 27, 27, 26, 26, 26, 4, 4, 4, 4, 4, 4, 25, 23, 20, 20, 18, 15, 22, 19, 17, 16, 13, 12, 25, 21, 19, 18, 15, 10, 23, 22, 16, 12, 11, 3, 11, 11, 9, 9, 7, 7, 23, 22, 21, 19, 18, 17, 28, 26, 25, 22, 21, 21, 28, 26, 23, 19, 17, 14, 29, 29, 28, 28, 28, 27, 19, 18, 18, 16, 16, 15, 16, 16, 16, 16, 16, 16, 18, 18, 18, 18, 18, 18, 12, 10, 6, 4, 2, 1, 18, 17, 17, 17, 16, 16, 22, 22, 20, 19, 19, 17, 26, 26, 25, 23, 21, 21, 17, 14, 11, 11, 8, 7, 24, 19, 17, 16, 13, 12, 11, 10, 9, 8, 7, 6, 18, 16, 16, 14, 11, 10, 12, 10, 8, 7, 3, 3, 28, 27, 27, 26, 24, 23, 20, 20, 17, 10, 9, 6, 14, 13, 13, 12, 12, 11, 17, 16, 15, 14, 13, 13, 18, 17, 17, 16, 16, 15, 28, 21, 17, 14, 10, 7, 27, 23, 22, 20, 17, 13, 25, 19, 17, 12, 10, 6, 9, 7, 7, 6, 3, 2, 19, 17, 16, 14, 13, 13, 21, 18, 17, 16, 14, 14, 27, 21, 19, 15, 15, 11, 27, 27, 25, 23, 22, 20, 14, 12, 10, 9, 6, 2, 21, 15, 14, 8, 4, 2, 22, 21, 21, 19, 18, 18, 25, 24, 24, 23, 22, 22, 30, 26, 23, 22, 19, 17, 9, 9, 9, 9, 9, 9, 20, 18, 15, 14, 12, 9, 27, 22, 18, 15, 14, 9, 24, 24, 24, 24, 24, 24, 28, 23, 19, 14, 9, 8, 24, 22, 20, 18, 17, 15, 22, 21, 19, 18, 14, 13, 23, 20, 14, 14, 10, 6, 28, 25, 25, 23, 20, 17, 21, 19, 16, 14, 13, 10, 17, 15, 13, 12, 9, 9, 26, 22, 20, 14, 12, 8, 15, 14, 14, 14, 14, 14, 21, 18, 14, 11, 7, 4, 20, 17, 17, 14, 13, 12, 23, 19, 19, 16, 14, 12, 23, 21, 21, 21, 20, 19, 22, 22, 20, 20, 19, 18, 17, 17, 15, 15, 13, 13, 26, 23, 22, 20, 14, 12, 6, 5, 5, 5, 5, 5, 22, 19, 18, 16, 14, 12, 6, 6, 6, 6, 6, 6, 26, 25, 23, 21, 20, 18, 11, 11, 10, 8, 7, 6, 18, 16, 16, 13, 13, 11, 10, 10, 9, 8, 7, 6, 15, 14, 14, 13, 12, 12, 27, 26, 25, 22, 22, 19, 20, 19, 17, 17, 16, 15, 28, 25, 17, 12, 11, 8, 30, 30, 30, 30, 30, 30
 |26, 20, 17, 14, 8, 5, 11, 11, 11, 11, 11, 11, 25, 23, 23, 21, 19, 18, 22, 18, 16, 15, 9, 7, 24, 19, 19, 13, 9, 6, 20, 17, 14, 10, 6, 4, 8, 7, 5, 5, 4, 1, 25, 22, 19, 19, 13, 12, 25, 23, 17, 14, 8, 2, 5, 5, 5, 5, 5, 5, 28, 27, 26, 25, 25, 23, 19, 18, 12, 8, 8, 4, 23, 22, 21, 18, 17, 16, 29, 28, 28, 27, 27, 27, 26, 19, 17, 14, 8, 5, 5, 4, 3, 3, 2, 1, 22, 18, 17, 12, 6, 1, 23, 22, 21, 20, 19, 16, 16, 15, 12, 10, 10, 7, 23, 19, 18, 14, 12, 9, 29, 24, 21, 18, 12, 9, 11, 9, 7, 6, 3, 2, 28, 26, 26, 24, 23, 22, 19, 17, 15, 14, 14, 12, 11, 9, 6, 6, 3, 1, 25, 24, 23, 23, 22, 22, 23, 23, 23, 23, 22, 22, 27, 24, 23, 23, 21, 19, 24, 22, 22, 21, 18, 17, 16, 15, 15, 14, 14, 14, 25, 22, 20, 13, 13, 8, 28, 27, 26, 24, 22, 21, 24, 23, 22, 22, 20, 19, 18, 16, 15, 11, 9, 9, 24, 23, 22, 22, 21, 20, 17, 16, 14, 12, 8, 6, 14, 12, 12, 11, 10, 9, 3, 3, 3, 3, 3, 3, 18, 14, 14, 13, 9, 8, 27, 25, 18, 18, 15, 10, 29, 29, 28, 28, 27, 27, 28, 27, 25, 25, 24, 23, 13, 13, 12, 10, 10, 9, 14, 13, 12, 11, 10, 10, 24, 24, 24, 24, 24, 24, 18, 17, 16, 16, 15, 13, 20, 20, 18, 16, 14, 13, 27, 26, 25, 25, 24, 23, 14, 14, 12, 11, 11, 10, 19, 17, 13, 8, 8, 2, 12, 12, 10, 9, 9, 7, 23, 23, 23, 22, 22, 22, 20, 15, 13, 12, 9, 5, 21, 19, 18, 16, 14, 14, 21, 19, 15, 13, 9, 4, 9, 8, 7, 7, 5, 5, 29, 26, 26, 25, 23, 22, 24, 21, 19, 16, 10, 8, 26, 25, 23, 18, 17, 13, 26, 23, 20, 16, 10, 7, 27, 27, 27, 26, 26, 25, 28, 27, 27, 27, 26, 25, 10, 8, 8, 7, 6, 5, 24, 21, 15, 11, 7, 5, 29, 23, 20, 15, 9, 5, 21, 18, 17, 16, 16, 15, 18, 16, 13, 11, 8, 5, 22, 20, 16, 14, 9, 7, 18, 17, 16, 16, 14, 12, 25, 25, 25, 25, 25, 25, 28, 21, 18, 13, 9, 3, 13, 12, 9, 6, 6, 4, 21, 18, 18, 17, 16, 14, 14, 12, 10, 8, 8, 6, 7, 7, 6, 5, 3, 3, 6, 5, 4, 4, 3, 1, 23, 23, 20, 17, 16, 15, 19, 19, 19, 18, 18, 17, 30, 21, 18, 16, 7, 7, 23, 22, 22, 21, 21, 21, 15, 11, 8, 6, 4, 4, 25, 25, 16, 13, 10, 4, 23, 22, 22, 19, 19, 16, 26, 25, 22, 18, 18, 15, 24, 23, 17, 17, 13, 10, 21, 20, 20, 18, 18, 17, 8, 7, 6, 6, 5, 4, 21, 20, 16, 16, 13, 12, 9, 8, 6, 6, 5, 4, 27, 27, 24, 23, 21, 21, 24, 20, 17, 13, 8, 6, 17, 17, 16, 16, 16, 15, 29, 27, 26, 25, 24, 22, 10, 9, 8, 6, 5, 5, 5, 3, 3, 2, 1, 1, 21, 19, 16, 15, 13, 11, 25, 24, 21, 20, 19, 17, 16, 13, 11, 8, 6, 3, 28, 25, 19, 18, 13, 12, 30, 25, 24, 20, 16, 13
 |13, 11, 7, 7, 3, 2, 10, 9, 9, 9, 9, 9, 3, 2, 2, 2, 2, 2, 13, 13, 12, 10, 9, 6, 29, 20, 19, 12, 11, 5, 20, 17, 17, 12, 11, 7, 24, 22, 20, 18, 14, 13, 16, 14, 11, 9, 7, 6, 17, 14, 11, 7, 7, 3, 9, 8, 6, 6, 5, 2, 15, 14, 14, 14, 14, 14, 20, 19, 17, 15, 9, 9, 26, 23, 19, 16, 11, 11, 25, 20, 19, 18, 13, 10, 14, 13, 13, 12, 10, 10, 28, 27, 26, 25, 22, 22, 15, 14, 14, 13, 13, 13, 24, 24, 24, 24, 24, 24, 25, 24, 19, 15, 13, 6, 20, 18, 16, 14, 10, 8, 24, 23, 22, 22, 20, 20, 15, 15, 14, 14, 13, 13, 19, 19, 18, 16, 15, 14, 29, 21, 17, 17, 9, 5, 17, 17, 17, 17, 16, 16, 12, 10, 9, 9, 7, 7, 16, 16, 13, 9, 9, 5, 28, 25, 20, 18, 15, 10, 27, 27, 26, 26, 24, 24, 6, 6, 6, 6, 5, 5, 11, 11, 9, 8, 8, 7, 16, 13, 12, 9, 7, 3, 12, 10, 9, 6, 5, 3, 5, 3, 3, 2, 2, 1, 29, 28, 28, 28, 26, 26, 3, 3, 3, 3, 3, 3, 21, 19, 18, 17, 16, 16, 23, 23, 22, 22, 21, 21, 23, 21, 21, 18, 17, 15, 5, 5, 5, 5, 4, 4, 28, 26, 22, 22, 20, 18, 13, 12, 11, 8, 7, 6, 16, 15, 14, 12, 10, 9, 9, 8, 7, 5, 4, 3, 22, 20, 17, 15, 13, 12, 13, 13, 11, 10, 10, 9, 19, 18, 16, 16, 14, 14, 22, 19, 16, 14, 14, 11, 19, 19, 17, 14, 11, 10, 4, 3, 3, 2, 2, 1, 21, 18, 18, 13, 12, 8, 15, 13, 11, 10, 6, 6, 21, 21, 21, 21, 21, 21, 24, 21, 18, 16, 13, 9, 29, 26, 24, 19, 16, 14, 11, 10, 9, 7, 7, 5, 21, 20, 19, 17, 16, 15, 30, 23, 19, 17, 11, 8, 29, 25, 20, 16, 11, 8, 21, 15, 13, 13, 8, 5, 20, 19, 17, 16, 16, 14, 20, 16, 15, 12, 9, 7, 27, 26, 26, 26, 26, 26, 25, 22, 16, 14, 10, 8, 23, 23, 23, 23, 23, 23, 26, 26, 26, 25, 25, 24, 2, 2, 2, 2, 2, 2, 14, 10, 10, 5, 4, 2, 25, 21, 20, 16, 14, 9, 26, 24, 23, 23, 21, 21, 23, 18, 12, 10, 8, 2, 22, 17, 17, 13, 11, 10, 25, 24, 23, 19, 17, 17, 25, 20, 19, 15, 9, 4, 29, 26, 24, 23, 19, 19, 12, 10, 8, 7, 4, 3, 23, 19, 18, 18, 14, 13, 13, 13, 12, 10, 9, 8, 13, 9, 9, 8, 5, 3, 7, 6, 6, 5, 2, 2, 24, 22, 21, 18, 16, 15, 18, 16, 12, 10, 6, 2, 20, 19, 14, 13, 8, 4, 24, 23, 22, 20, 20, 18, 28, 23, 19, 16, 14, 10, 22, 19, 15, 13, 9, 6, 25, 23, 21, 21, 16, 14, 22, 16, 15, 9, 4, 3, 28, 28, 28, 28, 27, 27, 21, 19, 19, 19, 18, 17, 7, 6, 5, 5, 4, 3, 10, 10, 9, 8, 7, 7, 16, 15, 12, 10, 7, 3, 16, 15, 12, 11, 10, 8, 30, 24, 23, 20, 16, 16, 2, 1, 1, 1, 1, 1, 30, 27, 24, 20, 17, 16, 30, 26, 18, 16, 10, 8, 26, 19, 17, 13, 12, 8, 8, 7, 6, 5, 2, 2
 |6, 6, 6, 6, 6, 6, 21, 18, 16, 11, 10, 9, 16, 13, 12, 8, 7, 4, 14, 13, 13, 13, 13, 13, 21, 20, 19, 18, 17, 17, 1, 1, 1, 1, 1, 1, 24, 22, 20, 19, 18, 17, 29, 25, 21, 19, 16, 13, 17, 16, 15, 15, 12, 12, 14, 11, 8, 7, 5, 4, 28, 26, 24, 21, 19, 15, 26, 21, 16, 11, 6, 3, 16, 16, 16, 16, 16, 16, 14, 12, 9, 7, 4, 4, 25, 24, 20, 14, 13, 8, 26, 21, 18, 17, 15, 11, 9, 7, 7, 5, 4, 4, 22, 21, 19, 17, 12, 11, 22, 21, 19, 17, 16, 16, 19, 15, 14, 9, 7, 1, 21, 20, 20, 20, 20, 20, 26, 20, 18, 14, 8, 2, 16, 15, 13, 10, 6, 4, 24, 23, 19, 16, 13, 13, 17, 14, 10, 9, 8, 4, 17, 14, 10, 9, 6, 4, 20, 17, 16, 11, 6, 1, 21, 21, 18, 15, 13, 10, 14, 12, 9, 7, 4, 4, 4, 3, 3, 2, 2, 2, 24, 23, 23, 22, 22, 22, 8, 7, 7, 6, 6, 6, 28, 25, 21, 18, 16, 13, 30, 28, 27, 25, 23, 22, 21, 17, 14, 8, 6, 3, 18, 18, 18, 18, 18, 18, 17, 17, 16, 16, 14, 14, 26, 23, 20, 20, 15, 12, 13, 13, 12, 13, 12, 12, 14, 14, 14, 14, 14, 14, 26, 23, 22, 18, 16, 15, 24, 18, 16, 11, 7, 7, 23, 20, 14, 9, 5, 3, 18, 17, 15, 13, 9, 8, 10, 8, 6, 4, 2, 1, 25, 19, 16, 14, 8, 6, 8, 7, 7, 7, 6, 6, 28, 23, 22, 17, 10, 6, 17, 16, 16, 16, 16, 16, 16, 13, 12, 11, 10, 8, 26, 24, 23, 22, 22, 21, 26, 24, 21, 20, 16, 14, 5, 5, 5, 4, 4, 3, 26, 26, 26, 26, 26, 26, 30, 27, 27, 26, 25, 24, 30, 30, 30, 30, 30, 30, 22, 18, 14, 13, 8, 7, 18, 17, 14, 12, 6, 6, 27, 24, 22, 17, 17, 11, 25, 25, 24, 23, 21, 19, 17, 15, 14, 13, 12, 12, 13, 13, 13, 13, 13, 13, 19, 18, 16, 14, 13, 11, 22, 21, 20, 19, 18, 17, 23, 22, 22, 22, 22, 22, 21, 15, 11, 8, 6, 2, 27, 26, 26, 26, 26, 26, 25, 23, 22, 22, 21, 19, 30, 22, 22, 18, 14, 8, 18, 15, 13, 7, 7, 1, 25, 23, 22, 19, 18, 16, 9, 7, 6, 6, 3, 3, 16, 13, 12, 8, 7, 3, 23, 22, 19, 12, 6, 4, 20, 14, 10, 8, 7, 4, 22, 21, 20, 19, 19, 18, 14, 13, 10, 7, 7, 3, 29, 25, 23, 23, 20, 18, 15, 13, 11, 11, 7, 6, 27, 23, 23, 18, 13, 10, 20, 19, 19, 17, 16, 14, 16, 14, 11, 6, 4, 3, 25, 18, 17, 13, 11, 6, 22, 18, 14, 10, 5, 5, 16, 14, 14, 12, 12, 11, 14, 11, 9, 9, 5, 5, 16, 15, 14, 13, 12, 11, 27, 26, 24, 24, 23, 22, 9, 8, 8, 8, 8, 8, 29, 21, 20, 13, 6, 4, 22, 19, 14, 9, 5, 1, 29, 26, 24, 21, 20, 18, 13, 10, 9, 6, 3, 2, 24, 23, 22, 20, 19, 18, 24, 21, 16, 13, 12, 8, 17, 15, 12, 12, 10, 9, 26, 23, 23, 21, 19, 19, 12, 11, 8, 8, 4, 3, 29, 26, 24, 20, 17, 17, 21, 19, 17, 16, 15, 13|];